smart_table_proofs/random_table_3vars_399.opb
* #variable= 27 #constraint= 104
* variable iv0_x0 -1 .. 3 bits encoding
-4 iv0_x0_bn_2 1 iv0_x0_b_0 2 iv0_x0_b_1 >= -1 ;
4 iv0_x0_bn_2 -1 iv0_x0_b_0 -2 iv0_x0_b_1 >= -3 ;
-4 iv0_x0_bn_2 1 iv0_x0_b_0 2 iv0_x0_b_1 3 ~iv0_ge_-1 >= -1 ;
4 iv0_x0_bn_2 -1 iv0_x0_b_0 -2 iv0_x0_b_1 5 iv0_ge_-1 >= 2 ;
1 iv0_ge_-1 >= 1 ;
-4 iv0_x0_bn_2 1 iv0_x0_b_0 2 iv0_x0_b_1 4 ~iv0_ge_0 >= 0 ;
4 iv0_x0_bn_2 -1 iv0_x0_b_0 -2 iv0_x0_b_1 4 iv0_ge_0 >= 1 ;
-1 iv0_ge_0 1 iv0_ge_-1 >= 0 ;
1 iv0_ge_-1 1 ~iv0_ge_0 2 ~iv0_eq_-1 >= 2 ;
-1 iv0_ge_-1 -1 ~iv0_ge_0 1 iv0_eq_-1 >= -1 ;
-4 iv0_x0_bn_2 1 iv0_x0_b_0 2 iv0_x0_b_1 5 ~iv0_ge_1 >= 1 ;
4 iv0_x0_bn_2 -1 iv0_x0_b_0 -2 iv0_x0_b_1 3 iv0_ge_1 >= 0 ;
-1 iv0_ge_1 1 iv0_ge_0 >= 0 ;
1 iv0_ge_0 1 ~iv0_ge_1 2 ~iv0_eq_0 >= 2 ;
-1 iv0_ge_0 -1 ~iv0_ge_1 1 iv0_eq_0 >= -1 ;
-4 iv0_x0_bn_2 1 iv0_x0_b_0 2 iv0_x0_b_1 6 ~iv0_ge_2 >= 2 ;
4 iv0_x0_bn_2 -1 iv0_x0_b_0 -2 iv0_x0_b_1 2 iv0_ge_2 >= -1 ;
-1 iv0_ge_2 1 iv0_ge_1 >= 0 ;
1 iv0_ge_1 1 ~iv0_ge_2 2 ~iv0_eq_1 >= 2 ;
-1 iv0_ge_1 -1 ~iv0_ge_2 1 iv0_eq_1 >= -1 ;
-4 iv0_x0_bn_2 1 iv0_x0_b_0 2 iv0_x0_b_1 7 ~iv0_ge_3 >= 3 ;
4 iv0_x0_bn_2 -1 iv0_x0_b_0 -2 iv0_x0_b_1 1 iv0_ge_3 >= -2 ;
-1 iv0_ge_3 1 iv0_ge_2 >= 0 ;
1 iv0_ge_2 1 ~iv0_ge_3 2 ~iv0_eq_2 >= 2 ;
-1 iv0_ge_2 -1 ~iv0_ge_3 1 iv0_eq_2 >= -1 ;
-4 iv0_x0_bn_2 1 iv0_x0_b_0 2 iv0_x0_b_1 8 ~iv0_ge_4 >= 4 ;
4 iv0_x0_bn_2 -1 iv0_x0_b_0 -2 iv0_x0_b_1 0 iv0_ge_4 >= -3 ;
1 ~iv0_ge_4 >= 1 ;
-1 iv0_ge_4 1 iv0_ge_3 >= 0 ;
1 iv0_ge_3 1 ~iv0_ge_4 2 ~iv0_eq_3 >= 2 ;
-1 iv0_ge_3 -1 ~iv0_ge_4 1 iv0_eq_3 >= -1 ;
* variable iv1_x1 -1 .. 3 bits encoding
-4 iv1_x1_bn_2 1 iv1_x1_b_0 2 iv1_x1_b_1 >= -1 ;
4 iv1_x1_bn_2 -1 iv1_x1_b_0 -2 iv1_x1_b_1 >= -3 ;
-4 iv1_x1_bn_2 1 iv1_x1_b_0 2 iv1_x1_b_1 3 ~iv1_ge_-1 >= -1 ;
4 iv1_x1_bn_2 -1 iv1_x1_b_0 -2 iv1_x1_b_1 5 iv1_ge_-1 >= 2 ;
1 iv1_ge_-1 >= 1 ;
-4 iv1_x1_bn_2 1 iv1_x1_b_0 2 iv1_x1_b_1 4 ~iv1_ge_0 >= 0 ;
4 iv1_x1_bn_2 -1 iv1_x1_b_0 -2 iv1_x1_b_1 4 iv1_ge_0 >= 1 ;
-1 iv1_ge_0 1 iv1_ge_-1 >= 0 ;
1 iv1_ge_-1 1 ~iv1_ge_0 2 ~iv1_eq_-1 >= 2 ;
-1 iv1_ge_-1 -1 ~iv1_ge_0 1 iv1_eq_-1 >= -1 ;
-4 iv1_x1_bn_2 1 iv1_x1_b_0 2 iv1_x1_b_1 5 ~iv1_ge_1 >= 1 ;
4 iv1_x1_bn_2 -1 iv1_x1_b_0 -2 iv1_x1_b_1 3 iv1_ge_1 >= 0 ;
-1 iv1_ge_1 1 iv1_ge_0 >= 0 ;
1 iv1_ge_0 1 ~iv1_ge_1 2 ~iv1_eq_0 >= 2 ;
-1 iv1_ge_0 -1 ~iv1_ge_1 1 iv1_eq_0 >= -1 ;
-4 iv1_x1_bn_2 1 iv1_x1_b_0 2 iv1_x1_b_1 6 ~iv1_ge_2 >= 2 ;
4 iv1_x1_bn_2 -1 iv1_x1_b_0 -2 iv1_x1_b_1 2 iv1_ge_2 >= -1 ;
-1 iv1_ge_2 1 iv1_ge_1 >= 0 ;
1 iv1_ge_1 1 ~iv1_ge_2 2 ~iv1_eq_1 >= 2 ;
-1 iv1_ge_1 -1 ~iv1_ge_2 1 iv1_eq_1 >= -1 ;
-4 iv1_x1_bn_2 1 iv1_x1_b_0 2 iv1_x1_b_1 7 ~iv1_ge_3 >= 3 ;
4 iv1_x1_bn_2 -1 iv1_x1_b_0 -2 iv1_x1_b_1 1 iv1_ge_3 >= -2 ;
-1 iv1_ge_3 1 iv1_ge_2 >= 0 ;
1 iv1_ge_2 1 ~iv1_ge_3 2 ~iv1_eq_2 >= 2 ;
-1 iv1_ge_2 -1 ~iv1_ge_3 1 iv1_eq_2 >= -1 ;
-4 iv1_x1_bn_2 1 iv1_x1_b_0 2 iv1_x1_b_1 8 ~iv1_ge_4 >= 4 ;
4 iv1_x1_bn_2 -1 iv1_x1_b_0 -2 iv1_x1_b_1 0 iv1_ge_4 >= -3 ;
1 ~iv1_ge_4 >= 1 ;
-1 iv1_ge_4 1 iv1_ge_3 >= 0 ;
1 iv1_ge_3 1 ~iv1_ge_4 2 ~iv1_eq_3 >= 2 ;
-1 iv1_ge_3 -1 ~iv1_ge_4 1 iv1_eq_3 >= -1 ;
* variable iv2_x2 -1 .. 3 bits encoding
-4 iv2_x2_bn_2 1 iv2_x2_b_0 2 iv2_x2_b_1 >= -1 ;
4 iv2_x2_bn_2 -1 iv2_x2_b_0 -2 iv2_x2_b_1 >= -3 ;
-4 iv2_x2_bn_2 1 iv2_x2_b_0 2 iv2_x2_b_1 3 ~iv2_ge_-1 >= -1 ;
4 iv2_x2_bn_2 -1 iv2_x2_b_0 -2 iv2_x2_b_1 5 iv2_ge_-1 >= 2 ;
1 iv2_ge_-1 >= 1 ;
-4 iv2_x2_bn_2 1 iv2_x2_b_0 2 iv2_x2_b_1 4 ~iv2_ge_0 >= 0 ;
4 iv2_x2_bn_2 -1 iv2_x2_b_0 -2 iv2_x2_b_1 4 iv2_ge_0 >= 1 ;
-1 iv2_ge_0 1 iv2_ge_-1 >= 0 ;
1 iv2_ge_-1 1 ~iv2_ge_0 2 ~iv2_eq_-1 >= 2 ;
-1 iv2_ge_-1 -1 ~iv2_ge_0 1 iv2_eq_-1 >= -1 ;
-4 iv2_x2_bn_2 1 iv2_x2_b_0 2 iv2_x2_b_1 5 ~iv2_ge_1 >= 1 ;
4 iv2_x2_bn_2 -1 iv2_x2_b_0 -2 iv2_x2_b_1 3 iv2_ge_1 >= 0 ;
-1 iv2_ge_1 1 iv2_ge_0 >= 0 ;
1 iv2_ge_0 1 ~iv2_ge_1 2 ~iv2_eq_0 >= 2 ;
-1 iv2_ge_0 -1 ~iv2_ge_1 1 iv2_eq_0 >= -1 ;
-4 iv2_x2_bn_2 1 iv2_x2_b_0 2 iv2_x2_b_1 6 ~iv2_ge_2 >= 2 ;
4 iv2_x2_bn_2 -1 iv2_x2_b_0 -2 iv2_x2_b_1 2 iv2_ge_2 >= -1 ;
-1 iv2_ge_2 1 iv2_ge_1 >= 0 ;
1 iv2_ge_1 1 ~iv2_ge_2 2 ~iv2_eq_1 >= 2 ;
-1 iv2_ge_1 -1 ~iv2_ge_2 1 iv2_eq_1 >= -1 ;
-4 iv2_x2_bn_2 1 iv2_x2_b_0 2 iv2_x2_b_1 7 ~iv2_ge_3 >= 3 ;
4 iv2_x2_bn_2 -1 iv2_x2_b_0 -2 iv2_x2_b_1 1 iv2_ge_3 >= -2 ;
-1 iv2_ge_3 1 iv2_ge_2 >= 0 ;
1 iv2_ge_2 1 ~iv2_ge_3 2 ~iv2_eq_2 >= 2 ;
-1 iv2_ge_2 -1 ~iv2_ge_3 1 iv2_eq_2 >= -1 ;
-4 iv2_x2_bn_2 1 iv2_x2_b_0 2 iv2_x2_b_1 8 ~iv2_ge_4 >= 4 ;
4 iv2_x2_bn_2 -1 iv2_x2_b_0 -2 iv2_x2_b_1 0 iv2_ge_4 >= -3 ;
1 ~iv2_ge_4 >= 1 ;
-1 iv2_ge_4 1 iv2_ge_3 >= 0 ;
1 iv2_ge_3 1 ~iv2_ge_4 2 ~iv2_eq_3 >= 2 ;
-1 iv2_ge_3 -1 ~iv2_ge_4 1 iv2_eq_3 >= -1 ;
* constraint smart table
1 flag0_t0 >= 1 ;
-4 iv0_x0_bn_2 1 iv0_x0_b_0 2 iv0_x0_b_1 4 iv1_x1_bn_2 -1 iv1_x1_b_0 -2 iv1_x1_b_1 8 ~flag1_bin_lt >= 1 ;
-4 iv1_x1_bn_2 1 iv1_x1_b_0 2 iv1_x1_b_1 4 iv0_x0_bn_2 -1 iv0_x0_b_0 -2 iv0_x0_b_1 7 flag1_bin_lt >= 0 ;
1 ~iv2_eq_-1 1 ~iv2_eq_0 2 flag2_notinset >= 2 ;
1 ~iv2_eq_1 1 ~iv2_eq_3 1 ~iv2_eq_2 3 ~flag2_notinset >= 3 ;
1 ~iv2_eq_1 1 ~iv2_eq_2 1 ~iv2_eq_3 3 ~flag3_inset >= 3 ;
1 ~iv2_eq_0 1 ~iv2_eq_-1 2 flag3_inset >= 2 ;
1 ~iv0_eq_-1 1 ~iv0_eq_1 1 ~iv0_eq_2 1 ~iv0_eq_3 4 flag4_notinset >= 4 ;
1 ~iv0_eq_0 1 ~flag4_notinset >= 1 ;
1 flag1_bin_lt 1 flag2_notinset 1 flag3_inset 1 iv2_eq_1 1 flag4_notinset 5 ~flag0_t0 >= 5 ;
-1 flag1_bin_lt -1 flag2_notinset -1 flag3_inset -1 iv2_eq_1 -1 flag4_notinset 1 flag0_t0 >= -4 ;
