rup/random_table_3vars_399.rup
105:5 9 7 1 11 14 16 19 21 24 26 30 36 57 67 88 101 103 98
106:5 9 7 1 11 14 16 19 21 24 26 30 36 57 67 88 101 94 105
107:5 14 9 19 26 36 57 67 88 103 98
108:5 14 9 19 26 36 57 67 88 94 107
109:5 19 11 7 9 14 24 26 36 57 67 88 101 103 98
110:5 19 11 7 9 14 24 26 36 57 67 88 94 109
111:5 24 16 7 9 19 26 30 36 57 67 88 101 103 98
112:5 24 16 7 9 19 26 30 36 57 67 88 94 111
113:5 26 30 21 7 9 24 36 57 67 88 101 103 98
114:5 26 36 57 67 88 94 103 98
115:114
116:114
117:114
118:114
119:114
120:114
121:114
122:114
123:114
124:114
125:114
126:114
127:114
128:114
129:114
130:114
131:114
132:114
133:114
134:114
135:114
136:114
